c 
c G(n,p) graph
c graph gen seed     : 9121
c number of vertices : 50
c max number of edges: 1225
c edge probability   : 0.400000
c data structure     : sparse
c
c           Graph Stats
c number of vertices  : 50
c nonisolated vertices: 50
c number of edges     : 499
c edge density        : 0.407347
c max degree          : 29
c avg degree          : 19.96
c min degree          : 11
p col 50 499
e 1 50
e 1 48
e 1 45
e 1 44
e 1 41
e 1 40
e 1 38
e 1 34
e 1 33
e 1 32
e 1 30
e 1 23
e 1 22
e 1 19
e 1 18
e 1 17
e 1 11
e 1 8
e 1 5
e 1 3
e 2 50
e 2 49
e 2 46
e 2 41
e 2 40
e 2 36
e 2 35
e 2 33
e 2 30
e 2 26
e 2 24
e 2 20
e 2 19
e 2 13
e 2 11
e 2 10
e 2 7
e 2 6
e 2 5
e 3 48
e 3 45
e 3 44
e 3 41
e 3 39
e 3 35
e 3 31
e 3 23
e 3 20
e 3 16
e 3 15
e 3 13
e 3 11
e 3 8
e 3 5
e 4 45
e 4 42
e 4 40
e 4 39
e 4 38
e 4 28
e 4 25
e 4 23
e 4 22
e 4 21
e 4 20
e 4 19
e 4 15
e 4 14
e 4 12
e 4 11
e 4 8
e 4 6
e 5 50
e 5 48
e 5 45
e 5 44
e 5 39
e 5 38
e 5 37
e 5 36
e 5 34
e 5 30
e 5 29
e 5 25
e 5 19
e 5 18
e 5 15
e 5 11
e 6 46
e 6 41
e 6 38
e 6 37
e 6 34
e 6 30
e 6 29
e 6 28
e 6 23
e 6 19
e 6 18
e 6 17
e 6 16
e 6 15
e 6 14
e 6 12
e 6 8
e 6 7
e 7 50
e 7 49
e 7 47
e 7 45
e 7 42
e 7 39
e 7 37
e 7 32
e 7 28
e 7 27
e 7 21
e 7 19
e 7 15
e 7 14
e 7 13
e 7 11
e 7 10
e 8 50
e 8 45
e 8 43
e 8 42
e 8 34
e 8 33
e 8 31
e 8 30
e 8 29
e 8 28
e 8 27
e 8 25
e 8 20
e 8 19
e 8 18
e 8 11
e 9 49
e 9 48
e 9 46
e 9 45
e 9 41
e 9 39
e 9 35
e 9 33
e 9 32
e 9 29
e 9 27
e 9 24
e 9 20
e 9 19
e 9 18
e 9 15
e 10 49
e 10 46
e 10 44
e 10 42
e 10 38
e 10 37
e 10 36
e 10 32
e 10 28
e 10 25
e 10 24
e 10 22
e 10 17
e 10 16
e 10 13
e 10 11
e 11 47
e 11 44
e 11 42
e 11 41
e 11 40
e 11 38
e 11 36
e 11 35
e 11 34
e 11 32
e 11 31
e 11 30
e 11 29
e 11 28
e 11 27
e 11 25
e 11 18
e 11 16
e 11 15
e 11 14
e 11 12
e 12 46
e 12 42
e 12 41
e 12 40
e 12 39
e 12 35
e 12 29
e 12 26
e 12 25
e 12 24
e 12 23
e 12 22
e 12 21
e 12 20
e 12 17
e 12 14
e 12 13
e 13 50
e 13 49
e 13 45
e 13 43
e 13 40
e 13 38
e 13 37
e 13 32
e 13 31
e 13 30
e 13 26
e 13 25
e 13 22
e 13 21
e 13 18
e 13 14
e 14 47
e 14 45
e 14 44
e 14 41
e 14 37
e 14 35
e 14 33
e 14 30
e 14 27
e 14 24
e 14 22
e 14 21
e 14 17
e 14 15
e 15 46
e 15 45
e 15 39
e 15 36
e 15 32
e 15 30
e 15 28
e 15 25
e 15 24
e 15 23
e 15 22
e 15 21
e 15 19
e 15 17
e 16 48
e 16 45
e 16 43
e 16 39
e 16 38
e 16 37
e 16 35
e 16 34
e 16 31
e 16 22
e 16 21
e 16 18
e 17 47
e 17 42
e 17 41
e 17 40
e 17 38
e 17 37
e 17 36
e 17 35
e 17 30
e 17 29
e 17 27
e 17 24
e 17 21
e 17 18
e 18 50
e 18 44
e 18 41
e 18 25
e 18 24
e 18 22
e 18 21
e 19 50
e 19 48
e 19 47
e 19 46
e 19 44
e 19 40
e 19 39
e 19 37
e 19 36
e 19 35
e 19 27
e 19 22
e 19 21
e 20 50
e 20 47
e 20 46
e 20 45
e 20 43
e 20 42
e 20 39
e 20 38
e 20 32
e 20 30
e 20 29
e 20 24
e 20 23
e 20 22
e 21 50
e 21 48
e 21 47
e 21 45
e 21 42
e 21 37
e 21 36
e 21 31
e 21 30
e 21 29
e 21 28
e 21 27
e 21 24
e 21 22
e 22 49
e 22 48
e 22 47
e 22 46
e 22 39
e 22 32
e 22 31
e 22 26
e 23 50
e 23 48
e 23 45
e 23 44
e 23 43
e 23 37
e 23 34
e 23 31
e 23 30
e 24 49
e 24 47
e 24 42
e 24 41
e 24 39
e 24 38
e 24 36
e 24 32
e 24 31
e 24 29
e 25 48
e 25 46
e 25 45
e 25 44
e 25 42
e 25 37
e 25 36
e 25 35
e 25 32
e 25 30
e 25 29
e 26 50
e 26 48
e 26 47
e 26 44
e 26 42
e 26 41
e 26 40
e 26 36
e 26 35
e 26 34
e 26 33
e 26 30
e 27 50
e 27 49
e 27 48
e 27 46
e 27 40
e 27 39
e 27 36
e 27 33
e 27 29
e 27 28
e 28 47
e 28 46
e 28 42
e 28 41
e 28 39
e 28 38
e 28 37
e 28 36
e 28 32
e 29 50
e 29 48
e 29 46
e 29 44
e 29 42
e 29 33
e 29 32
e 29 30
e 30 50
e 30 48
e 30 47
e 30 42
e 30 41
e 30 39
e 30 33
e 30 32
e 30 31
e 31 49
e 31 46
e 31 45
e 31 43
e 31 42
e 31 41
e 31 40
e 31 37
e 31 36
e 31 35
e 31 34
e 31 33
e 31 32
e 32 48
e 32 46
e 32 45
e 32 43
e 32 39
e 32 38
e 32 37
e 33 49
e 33 45
e 33 44
e 33 41
e 33 34
e 34 47
e 34 42
e 34 41
e 34 35
e 35 50
e 35 48
e 35 46
e 35 41
e 35 40
e 35 37
e 36 49
e 36 46
e 36 45
e 36 44
e 36 42
e 36 39
e 36 38
e 36 37
e 37 47
e 37 45
e 37 40
e 38 48
e 38 47
e 38 46
e 38 45
e 38 43
e 38 41
e 38 39
e 39 50
e 39 47
e 39 45
e 39 40
e 40 50
e 40 46
e 40 45
e 40 44
e 40 43
e 40 42
e 40 41
e 41 49
e 41 48
e 41 47
e 41 46
e 42 49
e 42 48
e 42 46
e 43 46
e 43 44
e 44 50
e 44 49
e 44 46
e 44 45
e 45 49
e 46 49
e 46 48
e 46 47
e 47 49
e 47 48
e 48 50
e 48 49
e 49 50
